
50
12768

514 415
388 288
943 845
544 444
630 529
653 552
437 339
741 640
1000 901
172 72
663 561
367 265
754 656
722 624
147 46
213 113
630 529
960 859
900 798
926 824
240 138
453 351
677 577
467 367
329 231
1025 923
736 636
499 399
576 477
799 700
860 760
881 780
434 335
1066 968
864 764
373 271
272 172
533 431
359 261
979 878
110 10
916 818
260 162
913 812
535 433
230 132
1087 986
521 419
1078 979
425 323
